38
[-1, 0, 240, 0, 3, 0, 0, 0, 0, 468, 0, 207, 0, 70, 0, 396, 54, 0, 38, 0, 361, 0, 314, 17, 190, 190, 378, 0, 0, 374, 297, 0, 0, 0, 0, 191, 212, 24, 
0, -1, 0, 40, 24, 0, 0, 127, 0, 318, 0, 0, 0, 145, 383, 0, 65, 0, 107, 0, 0, 0, 0, 199, 0, 0, 219, 470, 0, 0, 326, 0, 0, 0, 50, 74, 0, 358, 
240, 0, -1, 64, 0, 9, 417, 405, 0, 20, 132, 0, 0, 384, 0, 66, 246, 0, 205, 147, 0, 414, 0, 0, 0, 0, 0, 0, 0, 0, 0, 40, 301, 360, 438, 169, 243, 378, 
0, 40, 64, -1, 482, 124, 469, 0, 32, 0, 29, 0, 29, 245, 0, 0, 0, 155, 0, 0, 203, 0, 0, 0, 0, 0, 0, 47, 0, 397, 100, 113, 0, 76, 0, 132, 477, 0, 
3, 24, 0, 482, -1, 334, 206, 0, 86, 311, 0, 0, 0, 470, 0, 112, 0, 0, 342, 92, 0, 0, 0, 0, 0, 86, 0, 0, 0, 0, 128, 413, 104, 287, 0, 0, 243, 26, 
0, 0, 9, 124, 334, -1, 2, 83, 93, 0, 0, 0, 475, 374, 494, 0, 187, 251, 35, 0, 4, 1, 94, 0, 0, 0, 97, 0, 0, 0, 449, 0, 0, 0, 210, 440, 0, 367, 
0, 0, 417, 469, 206, 2, -1, 0, 0, 0, 356, 74, 261, 258, 322, 176, 0, 394, 0, 92, 160, 26, 0, 327, 38, 0, 0, 0, 0, 306, 0, 0, 78, 394, 348, 0, 0, 252, 
0, 127, 405, 0, 0, 83, 0, -1, 5, 0, 0, 349, 0, 0, 353, 57, 129, 379, 442, 0, 0, 0, 0, 202, 0, 0, 221, 122, 167, 0, 236, 0, 0, 0, 198, 242, 96, 32, 
0, 0, 0, 32, 86, 93, 0, 5, -1, 431, 0, 0, 247, 152, 139, 0, 253, 34, 328, 53, 0, 0, 296, 0, 371, 0, 324, 284, 0, 295, 0, 0, 53, 0, 121, 171, 0, 0, 
468, 318, 20, 0, 311, 0, 0, 0, 431, -1, 0, 270, 0, 0, 372, 0, 87, 268, 0, 0, 103, 0, 0, 0, 95, 0, 0, 0, 0, 328, 350, 0, 0, 0, 241, 0, 388, 0, 
0, 0, 132, 29, 0, 0, 356, 0, 0, 0, -1, 76, 0, 466, 121, 16, 0, 0, 58, 398, 0, 0, 85, 62, 0, 7, 368, 0, 0, 303, 0, 353, 0, 64, 0, 0, 0, 401, 
207, 0, 0, 0, 0, 0, 74, 349, 0, 270, 76, -1, 0, 0, 26, 173, 49, 0, 356, 407, 169, 6, 462, 0, 166, 43, 207, 0, 0, 0, 275, 259, 0, 0, 384, 0, 123, 0, 
0, 0, 0, 29, 0, 475, 261, 0, 247, 0, 0, 0, -1, 495, 8, 482, 0, 138, 0, 0, 0, 0, 0, 0, 0, 271, 229, 0, 58, 0, 205, 94, 0, 0, 0, 79, 71, 285, 
70, 145, 384, 245, 470, 374, 258, 0, 152, 0, 466, 0, 495, -1, 331, 0, 0, 98, 0, 0, 0, 0, 214, 205, 0, 0, 0, 148, 46, 315, 456, 0, 131, 0, 214, 0, 400, 474, 
0, 383, 0, 0, 0, 494, 322, 353, 139, 372, 121, 26, 8, 331, -1, 196, 0, 384, 103, 343, 78, 0, 60, 381, 0, 0, 0, 395, 80, 0, 0, 0, 207, 0, 0, 53, 0, 0, 
396, 0, 66, 0, 112, 0, 176, 57, 0, 0, 16, 173, 482, 0, 196, -1, 156, 104, 0, 0, 0, 231, 0, 151, 300, 0, 491, 434, 491, 385, 346, 18, 0, 0, 0, 10, 385, 0, 
54, 65, 246, 0, 0, 187, 0, 129, 253, 87, 0, 49, 0, 0, 0, 156, -1, 162, 0, 0, 0, 409, 436, 30, 132, 136, 1, 262, 10, 233, 443, 12, 78, 352, 0, 0, 70, 200, 
0, 0, 0, 155, 0, 251, 394, 379, 34, 268, 0, 0, 138, 98, 384, 104, 162, -1, 0, 433, 442, 427, 325, 9, 42, 475, 0, 318, 72, 132, 0, 73, 0, 492, 247, 347, 334, 130, 
38, 107, 205, 0, 342, 35, 0, 442, 328, 0, 58, 356, 0, 0, 103, 0, 0, 0, -1, 0, 76, 459, 0, 0, 0, 0, 0, 0, 473, 0, 0, 0, 0, 0, 23, 0, 0, 57, 
0, 0, 147, 0, 92, 0, 92, 0, 53, 0, 398, 407, 0, 0, 343, 0, 0, 433, 0, -1, 0, 0, 0, 0, 316, 0, 0, 79, 421, 0, 474, 0, 111, 0, 267, 0, 0, 41, 
361, 0, 0, 203, 0, 4, 160, 0, 0, 103, 0, 169, 0, 0, 78, 0, 0, 442, 76, 0, -1, 0, 0, 72, 305, 0, 107, 90, 0, 71, 427, 159, 0, 0, 0, 363, 0, 0, 
0, 0, 414, 0, 0, 1, 26, 0, 0, 0, 0, 6, 0, 0, 0, 231, 409, 427, 459, 0, 0, -1, 92, 450, 18, 0, 0, 494, 0, 345, 0, 0, 22, 265, 139, 0, 96, 0, 
314, 0, 0, 0, 0, 94, 0, 0, 296, 0, 85, 462, 0, 214, 60, 0, 436, 325, 0, 0, 0, 92, -1, 151, 0, 482, 0, 0, 53, 46, 486, 0, 0, 0, 154, 0, 0, 367, 
17, 199, 0, 0, 0, 0, 327, 202, 0, 0, 62, 0, 0, 205, 381, 151, 30, 9, 0, 0, 72, 450, 151, -1, 0, 29, 0, 0, 54, 0, 111, 127, 0, 0, 0, 316, 0, 0, 
190, 0, 0, 0, 0, 0, 38, 0, 371, 95, 0, 166, 0, 0, 0, 300, 132, 42, 0, 316, 305, 18, 0, 0, -1, 150, 0, 0, 0, 421, 0, 260, 122, 0, 48, 481, 0, 353, 
190, 0, 0, 0, 86, 0, 0, 0, 0, 0, 7, 43, 271, 0, 0, 0, 136, 475, 0, 0, 0, 0, 482, 29, 150, -1, 2, 289, 0, 0, 44, 460, 481, 272, 472, 0, 0, 0, 
378, 219, 0, 0, 0, 97, 0, 221, 324, 0, 368, 207, 229, 0, 0, 491, 1, 0, 0, 0, 107, 0, 0, 0, 0, 2, -1, 49, 0, 61, 0, 474, 41, 0, 145, 287, 0, 0, 
0, 470, 0, 47, 0, 0, 0, 122, 284, 0, 0, 0, 0, 148, 395, 434, 262, 318, 0, 79, 90, 494, 0, 0, 0, 289, 49, -1, 0, 0, 243, 0, 186, 0, 260, 0, 89, 69, 
0, 0, 0, 0, 0, 0, 0, 167, 0, 0, 0, 0, 58, 46, 80, 491, 10, 72, 473, 421, 0, 0, 53, 54, 0, 0, 0, 0, -1, 0, 0, 160, 461, 0, 389, 0, 0, 64, 
374, 0, 0, 397, 0, 0, 306, 0, 295, 328, 303, 0, 0, 315, 0, 385, 233, 132, 0, 0, 71, 345, 46, 0, 421, 0, 61, 0, 0, -1, 154, 0, 61, 233, 0, 89, 145, 0, 
297, 326, 0, 100, 128, 449, 0, 236, 0, 350, 0, 275, 205, 456, 0, 346, 443, 0, 0, 474, 427, 0, 486, 111, 0, 44, 0, 243, 0, 154, -1, 77, 27, 0, 0, 251, 156, 374, 
0, 0, 40, 113, 413, 0, 0, 0, 0, 0, 353, 259, 94, 0, 0, 18, 12, 73, 0, 0, 159, 0, 0, 127, 260, 460, 474, 0, 160, 0, 77, -1, 168, 23, 0, 0, 0, 253, 
0, 0, 301, 0, 104, 0, 78, 0, 53, 0, 0, 0, 0, 131, 207, 0, 78, 0, 0, 111, 0, 22, 0, 0, 122, 481, 41, 186, 461, 61, 27, 168, -1, 0, 0, 0, 0, 330, 
0, 0, 360, 76, 287, 0, 394, 0, 0, 0, 64, 0, 0, 0, 0, 0, 352, 492, 0, 0, 0, 265, 0, 0, 0, 272, 0, 0, 0, 233, 0, 23, 0, -1, 0, 18, 20, 373, 
0, 50, 438, 0, 0, 210, 348, 198, 121, 241, 0, 384, 0, 214, 0, 0, 0, 247, 23, 267, 0, 139, 154, 0, 48, 472, 145, 260, 389, 0, 0, 0, 0, 0, -1, 0, 0, 0, 
191, 74, 169, 132, 0, 440, 0, 242, 171, 0, 0, 0, 79, 0, 53, 10, 0, 347, 0, 0, 363, 0, 0, 316, 481, 0, 287, 0, 0, 89, 251, 0, 0, 18, 0, -1, 0, 57, 
212, 0, 243, 477, 243, 0, 0, 96, 0, 388, 0, 123, 71, 400, 0, 385, 70, 334, 0, 0, 0, 96, 0, 0, 0, 0, 0, 89, 0, 145, 156, 0, 0, 20, 0, 0, -1, 0, 
24, 358, 378, 0, 26, 367, 252, 32, 0, 0, 401, 0, 285, 474, 0, 0, 200, 130, 57, 41, 0, 0, 367, 0, 353, 0, 0, 69, 64, 0, 374, 253, 330, 373, 0, 57, 0, -1]